=obj=                764771.99999978
x1                   0
x2                   54
x3                   53
x4                   20
x5                   0
x6                   50
x7                   9
x8                   0
x9                   43
x10                  5.00000000000001
x11                  14
x12                  0
x13                  0
x14                  14
x15                  30
x16                  18
x17                  21
x18                  0
x19                  15
x20                  45
x21                  22
x22                  1.99999999999999
x23                  31
x24                  0
x25                  30
x26                  0.999999999999986
x27                  0
x28                  31
x29                  1.99999999999999
x30                  0.999999999999983
x31                  32
x32                  39
x33                  51
x34                  32
x35                  29
x36                  2.00000000000001
x37                  24
x38                  21
x39                  20
x40                  2.00000000000001
x41                  32
x42                  31
x43                  2.00000000000001
x44                  1.00000000000001
x45                  40
x46                  9.999999999999989
x47                  0
x48                  31
x49                  1
x50                  30
x51                  0
x52                  2.99999999999998
x53                  33
x54                  45
x55                  15
x56                  26
x57                  4.00000000000001
x58                  56
x59                  6
x60                  0
x61                  30
x62                  4.00000000000001
x63                  34
x64                  18
x65                  48
x66                  31
x67                  5.00000000000001
x68                  0
x69                  25
x70                  53
x71                  0
x72                  9.000000000000011
x73                  36
x74                  32
x75                  13
x76                  10
x77                  37
x78                  5.00000000000001
x79                  0
x80                  0
x81                  3.99999999999999
x82                  22
x83                  51
x84                  35
x85                  38
x86                  6.00000000000001
x87                  29
x88                  0
x89                  0
x90                  20
x91                  2.99999999999995
x92                  33
x93                  36
x94                  15
x95                  40
x96                  44
x97                  37
x98                  4.00000000000004
x99                  52
x100                 22
x101                 0
x102                 19
x103                 23
x104                 7.00000000000005
x105                 10
x106                 41
x107                 0
x108                 0
x109                 1
x110                 0
x111                 31
x112                 6
x113                 10
x114                 23
x115                 2
x116                 17
x117                 26
x118                 0
x119                 3
x120                 53
x121                 20
x122                 55
x123                 0
x124                 15
x125                 22
x126                 36
x127                 17
x128                 24
x129                 0
x130                 0
x131                 50
x132                 0
x133                 9.000000000000011
x134                 0
x135                 30
x136                 29
x137                 0
x138                 10
x139                 6.00000000000001
x140                 0
x141                 0
x142                 0
x143                 22
x144                 0
x145                 0
x146                 0
x147                 49
x148                 22
x149                 53
x150                 49
x151                 41
x152                 8
x153                 11
x154                 1
x155                 16
x156                 50
x157                 0
x158                 26
x159                 33
x160                 50
x161                 58
x162                 3
x163                 0
x164                 36
x165                 3
x166                 17
x167                 2
x168                 49
x169                 57
x170                 1.99999999999999
x171                 27
x172                 0
x173                 35
x174                 14
x175                 25
x176                 29
x177                 26
x178                 55
x179                 0
x180                 24
x181                 35
x182                 2.00000000000001
x183                 32
x184                 0
x185                 32
x186                 2.00000000000001
x187                 0
x188                 0
x189                 29
x190                 3.00000000000001
x191                 0
x192                 0
x193                 2.00000000000001
x194                 0
x195                 23
x196                 0
x197                 42
x198                 9
x199                 9
x200                 29
x201                 32
x202                 28
x203                 9.00000000000002
x204                 3.99999999999999
x205                 0
x206                 12
x207                 0
x208                 30
x209                 0
x210                 24
x211                 53
x212                 0
x213                 0
x214                 1.99999999999999
x215                 28
x216                 0
x217                 3
x218                 10
x219                 30
x220                 0
x221                 0
x222                 7.99999999999999
x223                 1
x224                 46
x225                 51
x226                 0
x227                 2
x228                 0
x229                 0
x230                 1
x231                 1
x232                 1
x233                 1
x234                 0
x235                 1
x236                 0
x237                 1
x238                 0
x239                 0
x240                 0
x241                 0
x242                 0
x243                 0
x244                 1
x245                 0
x246                 0
x247                 0
x248                 0
x249                 0
x250                 0
x251                 2
x252                 2
x253                 0
x254                 0
x255                 0
x256                 1
x257                 1
x258                 0
x259                 1
x260                 0
x261                 0
x262                 1
x263                 1
x264                 0
x265                 1
x266                 1
x267                 0
x268                 1
x269                 1
x270                 0
x271                 1
x272                 1
x273                 2
x274                 0
x275                 1
x276                 2
x277                 0
x278                 0
x279                 1
x280                 1
x281                 1
x282                 1
x283                 1
x284                 1
x285                 1
x286                 0
x287                 2
x288                 3
x289                 3
x290                 1
x291                 1
x292                 2
x293                 2
x294                 2
x295                 2
x296                 1
x297                 2
x298                 1
x299                 0
x300                 1
x301                 1
x302                 0
x303                 0
x304                 1
x305                 2
x306                 1
x307                 0
x308                 1
x309                 2
x310                 1
x311                 0
x312                 0
x313                 1
x314                 0
x315                 1
x316                 0
x317                 1
x318                 1
x319                 1
x320                 1
x321                 0
x322                 0
x323                 1
x324                 2
x325                 2
x326                 2
x327                 0
x328                 1
x329                 1
x330                 1
x331                 0
x332                 2
x333                 0
x334                 0
x335                 1
x336                 1
x337                 2
x338                 1
x339                 1
x340                 0
x341                 1
x342                 1
x343                 1
x344                 1
x345                 1
x346                 0
x347                 1
x348                 1
x349                 1
x350                 1
x351                 3
x352                 1
x353                 2
x354                 0
x355                 1
x356                 1
x357                 1
x358                 1
x359                 1
x360                 1
x361                 1
x362                 0
x363                 0
x364                 1
x365                 1
x366                 1
x367                 0
x368                 0
x369                 1
x370                 0
x371                 1
x372                 1
x373                 1
x374                 1
x375                 1
x376                 2
x377                 1
x378                 0
x379                 0
x380                 1
x381                 0
x382                 0
x383                 1
x384                 0
x385                 1
x386                 1
x387                 0
x388                 0
x389                 0
x390                 1
x391                 0
x392                 2
x393                 1
x394                 0
x395                 1
x396                 2
x397                 0
